157
100000
42643
79609
5905
96252
32323
30318
38472
57751
10754
8099
31921
33738
18990
21566
27713
43468
35456
973
18512
27069
32935
12104
3404
34101
88710
40135
26406
38487
27213
51694
49570
15044
61389
44979
37184
8125
8684
41388
75801
80742
42249
16513
67005
33536
75474
76801
54103
15302
64777
21689
8624
12619
13597
1660
99027
36476
34061
18591
10124
18791
52154
11441
232
86233
2425
4690
12179
23672
56089
3748
24526
72079
44347
29717
63524
58613
27021
47760
14755
3170
855
13415
5943
16945
60655
57867
89876
3993
42133
87094
38611
51184
37788
83055
68627
79604
58830
63221
78311
14695
10
5043
23199
99145
20391
54287
43607
47742
24199
89246
50721
13161
15678
96007
32995
18500
35223
48306
54004
3671
41700
98340
877
4992
30191
31373
41170
39345
35227
25189
84651
28155
82914
2692
99123
7914
48121
22
62212
41488
61528
268
99768
1595
57357
13358
60559
94957
41387
18129
55153
35107
46859
5642
45897
18592
11290
